nbObj= 40;
Capacity= 127;
Profit =[ 13,40,57,54,93,102,48,48,75,85,54,104,42,108,91,45,21,23,30,101,44,81,60,69,32,107,75,82,19,81,108,83,12,109,53,67,79,24,47,110];
Weight =[ 29,36,38,63,30,53,53,35,39,46,31,60,46,39,52,49,38,63,34,60,60,63,45,39,25,60,40,29,26,55,34,44,31,27,38,52,44,54,57,54];
